
Gurobi 10.0.1 (linux64, gurobi_cl) logging started Mon Mar  6 15:30:10 2023

Set parameter Username
Set parameter LogFile to value "gurobi.log"

Gurobi 10.0.1 (linux64, gurobi_cl) logging started Mon Mar  6 15:35:18 2023

Set parameter Username
Set parameter LogFile to value "gurobi.log"

Gurobi 10.0.1 (linux64, gurobi_cl) logging started Mon Mar  6 15:40:04 2023

Set parameter Username
Set parameter LogFile to value "gurobi.log"

Gurobi 10.0.1 (linux64, gurobi_cl) logging started Mon Mar  6 15:40:51 2023

Set parameter Username
Set parameter LogFile to value "gurobi.log"

Gurobi 10.0.1 (linux64, gurobi_cl) logging started Mon Mar  6 15:42:55 2023

Set parameter Username
Set parameter LogFile to value "gurobi.log"

Gurobi 10.0.1 (linux64, gurobi_cl) logging started Mon Mar  6 15:46:19 2023

Set parameter Username
Set parameter LogFile to value "gurobi.log"
Academic license - for non-commercial use only - expires 2024-02-29
Using license file /home/agma/gurobi.lic

Gurobi 10.0.1 (linux64, gurobi_cl) logging started Mon Mar  6 15:46:53 2023

Set parameter Username
Set parameter LogFile to value "gurobi.log"
Academic license - for non-commercial use only - expires 2024-02-29
Using license file /home/agma/gurobi.lic

Gurobi 10.0.1 (linux64, gurobi_cl) logging started Mon Mar  6 15:48:59 2023

Set parameter Username
Set parameter LogFile to value "gurobi.log"
Academic license - for non-commercial use only - expires 2024-02-29
Using license file /home/agma/gurobi.lic

Gurobi 10.0.1 (linux64, gurobi_cl) logging started Mon Mar  6 15:49:00 2023

Set parameter Username
Set parameter LogFile to value "gurobi.log"
Academic license - for non-commercial use only - expires 2024-02-29
Using license file /home/agma/gurobi.lic

Gurobi 10.0.1 (linux64, gurobi_cl) logging started Mon Mar  6 15:49:59 2023

Set parameter Username
Set parameter LogFile to value "gurobi.log"
Academic license - for non-commercial use only - expires 2024-02-29
Using license file /home/agma/gurobi.lic

Gurobi 10.0.1 (linux64, gurobi_cl) logging started Mon Mar  6 15:51:11 2023

Set parameter Username
Set parameter LogFile to value "gurobi.log"
Academic license - for non-commercial use only - expires 2024-02-29
Using license file /home/agma/gurobi.lic

Gurobi 10.0.1 (linux64, gurobi_cl) logging started Mon Mar  6 16:16:53 2023

Set parameter Username
Set parameter LogFile to value "gurobi.log"
Academic license - for non-commercial use only - expires 2024-02-29
Using license file /home/agma/gurobi.lic

Gurobi 10.0.1 (linux64, gurobi_cl) logging started Mon Mar  6 16:18:19 2023

Set parameter Username
Set parameter LogFile to value "gurobi.log"
Academic license - for non-commercial use only - expires 2024-02-29
Using license file /home/agma/gurobi.lic

Gurobi 10.0.1 (linux64, gurobi_cl) logging started Mon Mar  6 16:20:42 2023

Set parameter Username
Set parameter LogFile to value "gurobi.log"
Academic license - for non-commercial use only - expires 2024-02-29
Using license file /home/agma/gurobi.lic

Gurobi 10.0.1 (linux64, gurobi_cl) logging started Mon Mar  6 22:39:04 2023

Set parameter Username
Set parameter LogFile to value "gurobi.log"
Academic license - for non-commercial use only - expires 2024-02-29
Using license file /home/agma/gurobi.lic

Gurobi 10.0.1 (linux64, gurobi_cl) logging started Mon Mar  6 22:41:50 2023

Set parameter Username
Set parameter LogFile to value "gurobi.log"
Academic license - for non-commercial use only - expires 2024-02-29
Using license file /home/agma/gurobi.lic

Gurobi 10.0.1 (linux64, gurobi_cl) logging started Mon Mar  6 22:42:56 2023

Set parameter Username
Set parameter LogFile to value "gurobi.log"
Academic license - for non-commercial use only - expires 2024-02-29
Using license file /home/agma/gurobi.lic

Gurobi 10.0.1 (linux64, gurobi_cl) logging started Mon Mar  6 22:46:52 2023

Set parameter Username
Set parameter LogFile to value "gurobi.log"
Academic license - for non-commercial use only - expires 2024-02-29
Using license file /home/agma/gurobi.lic

Gurobi 10.0.1 (linux64, gurobi_cl) logging started Mon Mar  6 22:53:15 2023

Set parameter Username
Set parameter LogFile to value "gurobi.log"
Academic license - for non-commercial use only - expires 2024-02-29
Using license file /home/agma/gurobi.lic

Gurobi 10.0.1 (linux64, gurobi_cl) logging started Mon Mar  6 22:55:33 2023

Set parameter Username
Set parameter LogFile to value "gurobi.log"
Academic license - for non-commercial use only - expires 2024-02-29
Using license file /home/agma/gurobi.lic

Gurobi 10.0.1 (linux64, gurobi_cl) logging started Mon Mar  6 22:56:30 2023

Set parameter Username
Set parameter LogFile to value "gurobi.log"
Academic license - for non-commercial use only - expires 2024-02-29
Using license file /home/agma/gurobi.lic

Gurobi 10.0.1 (linux64, gurobi_cl) logging started Mon Mar  6 22:56:31 2023

Set parameter Username
Set parameter LogFile to value "gurobi.log"
Academic license - for non-commercial use only - expires 2024-02-29
Using license file /home/agma/gurobi.lic

Gurobi 10.0.1 (linux64, gurobi_cl) logging started Mon Mar  6 23:02:53 2023

Set parameter Username
Set parameter LogFile to value "gurobi.log"
Academic license - for non-commercial use only - expires 2024-02-29
Using license file /home/agma/gurobi.lic

Gurobi 10.0.1 (linux64, gurobi_cl) logging started Mon Mar  6 23:04:12 2023

Set parameter Username
Set parameter LogFile to value "gurobi.log"
Academic license - for non-commercial use only - expires 2024-02-29
Using license file /home/agma/gurobi.lic

Gurobi 10.0.1 (linux64, gurobi_cl) logging started Wed Mar  8 04:18:56 2023

Set parameter Username
Set parameter LogFile to value "gurobi.log"
Academic license - for non-commercial use only - expires 2024-02-29
Using license file /home/agma/gurobi.lic

Gurobi 10.0.1 (linux64, gurobi_cl) logging started Wed Mar  8 04:19:46 2023

Set parameter Username
Set parameter LogFile to value "gurobi.log"
Academic license - for non-commercial use only - expires 2024-02-29
Using license file /home/agma/gurobi.lic

Gurobi 10.0.1 (linux64, gurobi_cl) logging started Wed Mar  8 04:19:46 2023

Set parameter Username
Set parameter LogFile to value "gurobi.log"
Academic license - for non-commercial use only - expires 2024-02-29
Using license file /home/agma/gurobi.lic

Gurobi 10.0.1 (linux64, gurobi_cl) logging started Wed Mar  8 18:05:13 2023

Set parameter Username
Set parameter LogFile to value "gurobi.log"
Academic license - for non-commercial use only - expires 2024-02-29
Using license file /home/agma/gurobi.lic

Gurobi 10.0.1 (linux64, gurobi_cl) logging started Wed Mar  8 18:06:15 2023

Set parameter Username
Set parameter LogFile to value "gurobi.log"
Academic license - for non-commercial use only - expires 2024-02-29
Using license file /home/agma/gurobi.lic

Gurobi 10.0.1 (linux64, gurobi_cl) logging started Wed Mar  8 18:09:11 2023

Set parameter Username
Set parameter LogFile to value "gurobi.log"
Academic license - for non-commercial use only - expires 2024-02-29
Using license file /home/agma/gurobi.lic

Gurobi 10.0.1 (linux64, gurobi_cl) logging started Wed Mar  8 18:12:03 2023

Set parameter Username
Set parameter LogFile to value "gurobi.log"
Academic license - for non-commercial use only - expires 2024-02-29
Using license file /home/agma/gurobi.lic

Gurobi 10.0.1 (linux64, gurobi_cl) logging started Wed Mar  8 18:12:42 2023

Set parameter Username
Set parameter LogFile to value "gurobi.log"
Academic license - for non-commercial use only - expires 2024-02-29
Using license file /home/agma/gurobi.lic

Gurobi 10.0.1 (linux64, gurobi_cl) logging started Wed Mar  8 18:12:43 2023

Set parameter Username
Set parameter LogFile to value "gurobi.log"
Academic license - for non-commercial use only - expires 2024-02-29
Using license file /home/agma/gurobi.lic

Gurobi 10.0.1 (linux64, gurobi_cl) logging started Wed Mar  8 23:41:51 2023

Set parameter Username
Set parameter LogFile to value "gurobi.log"
Academic license - for non-commercial use only - expires 2024-02-29
Using license file /home/agma/gurobi.lic

Gurobi 10.0.1 (linux64, gurobi_cl) logging started Wed Mar  8 23:42:45 2023

Set parameter Username
Set parameter LogFile to value "gurobi.log"
Academic license - for non-commercial use only - expires 2024-02-29
Using license file /home/agma/gurobi.lic

Gurobi 10.0.1 (linux64, gurobi_cl) logging started Wed Mar  8 23:44:10 2023

Set parameter Username
Set parameter LogFile to value "gurobi.log"
Academic license - for non-commercial use only - expires 2024-02-29
Using license file /home/agma/gurobi.lic

Gurobi 10.0.1 (linux64, gurobi_cl) logging started Wed Mar  8 23:44:11 2023

Set parameter Username
Set parameter LogFile to value "gurobi.log"
Academic license - for non-commercial use only - expires 2024-02-29
Using license file /home/agma/gurobi.lic

Gurobi 10.0.1 (linux64, gurobi_cl) logging started Sat Mar 11 00:59:42 2023

Set parameter Username
Set parameter LogFile to value "gurobi.log"
Academic license - for non-commercial use only - expires 2024-02-29
Using license file /home/agma/gurobi.lic

Gurobi 10.0.1 (linux64, gurobi_cl) logging started Sat Mar 11 01:02:22 2023

Set parameter Username
Set parameter LogFile to value "gurobi.log"
Academic license - for non-commercial use only - expires 2024-02-29
Using license file /home/agma/gurobi.lic

Gurobi 10.0.1 (linux64, gurobi_cl) logging started Sat Mar 11 21:38:26 2023

Set parameter Username
Set parameter LogFile to value "gurobi.log"
Academic license - for non-commercial use only - expires 2024-02-29
Using license file /home/agma/gurobi.lic

Gurobi 10.0.1 (linux64, gurobi_cl) logging started Sat Mar 11 21:39:51 2023

Set parameter Username
Set parameter LogFile to value "gurobi.log"
Academic license - for non-commercial use only - expires 2024-02-29
Using license file /home/agma/gurobi.lic

Gurobi 10.0.1 (linux64, gurobi_cl) logging started Sat Mar 11 21:41:04 2023

Set parameter Username
Set parameter LogFile to value "gurobi.log"
Academic license - for non-commercial use only - expires 2024-02-29
Using license file /home/agma/gurobi.lic

Gurobi 10.0.1 (linux64, gurobi_cl) logging started Sat Mar 11 21:41:05 2023

Set parameter Username
Set parameter LogFile to value "gurobi.log"
Academic license - for non-commercial use only - expires 2024-02-29
Using license file /home/agma/gurobi.lic

Gurobi 10.0.1 (linux64, gurobi_cl) logging started Tue Mar 14 05:15:10 2023

Set parameter Username
Set parameter LogFile to value "gurobi.log"
Academic license - for non-commercial use only - expires 2024-02-29
Using license file /home/agma/gurobi.lic

Gurobi 10.0.1 (linux64, gurobi_cl) logging started Tue Mar 14 05:15:15 2023

Set parameter Username
Set parameter LogFile to value "gurobi.log"
Academic license - for non-commercial use only - expires 2024-02-29
Using license file /home/agma/gurobi.lic

Gurobi 10.0.1 (linux64, gurobi_cl) logging started Tue Mar 14 18:51:23 2023

Set parameter Username
Set parameter LogFile to value "gurobi.log"
Academic license - for non-commercial use only - expires 2024-02-29
Using license file /home/agma/gurobi.lic

Gurobi 10.0.1 (linux64, gurobi_cl) logging started Tue Mar 14 18:51:28 2023

Set parameter Username
Set parameter LogFile to value "gurobi.log"
Academic license - for non-commercial use only - expires 2024-02-29
Using license file /home/agma/gurobi.lic

Gurobi 10.0.1 (linux64, gurobi_cl) logging started Tue Mar 21 15:12:38 2023

Set parameter Username
Set parameter LogFile to value "gurobi.log"
Academic license - for non-commercial use only - expires 2024-02-29
Using license file /home/agma/gurobi.lic

Gurobi 10.0.1 (linux64, gurobi_cl) logging started Tue Mar 21 15:12:43 2023

Set parameter Username
Set parameter LogFile to value "gurobi.log"
Academic license - for non-commercial use only - expires 2024-02-29
Using license file /home/agma/gurobi.lic

Gurobi 10.0.1 (linux64, gurobi_cl) logging started Sun Mar 26 00:01:19 2023

Set parameter Username
Set parameter LogFile to value "gurobi.log"
Academic license - for non-commercial use only - expires 2024-02-29
Using license file /home/agma/gurobi.lic

Gurobi 10.0.1 (linux64, gurobi_cl) logging started Sun Mar 26 00:01:25 2023

Set parameter Username
Set parameter LogFile to value "gurobi.log"
Academic license - for non-commercial use only - expires 2024-02-29
Using license file /home/agma/gurobi.lic

Gurobi 10.0.1 (linux64, gurobi_cl) logging started Sun Mar 26 16:02:32 2023

Set parameter Username
Set parameter LogFile to value "gurobi.log"
Academic license - for non-commercial use only - expires 2024-02-29
Using license file /home/agma/gurobi.lic

Gurobi 10.0.1 (linux64, gurobi_cl) logging started Sun Mar 26 16:03:44 2023

Set parameter Username
Set parameter LogFile to value "gurobi.log"
Academic license - for non-commercial use only - expires 2024-02-29
Using license file /home/agma/gurobi.lic

Gurobi 10.0.1 (linux64, gurobi_cl) logging started Sun Mar 26 16:04:23 2023

Set parameter Username
Set parameter LogFile to value "gurobi.log"
Academic license - for non-commercial use only - expires 2024-02-29
Using license file /home/agma/gurobi.lic

Gurobi 10.0.1 (linux64, gurobi_cl) logging started Sun Mar 26 16:04:24 2023

Set parameter Username
Set parameter LogFile to value "gurobi.log"
Academic license - for non-commercial use only - expires 2024-02-29
Using license file /home/agma/gurobi.lic

Gurobi 10.0.1 (linux64, gurobi_cl) logging started Sun Apr  2 17:31:52 2023

Set parameter Username
Set parameter LogFile to value "gurobi.log"
Academic license - for non-commercial use only - expires 2024-02-29
Using license file /home/agma/gurobi.lic

Gurobi 10.0.1 (linux64, gurobi_cl) logging started Sun Apr  2 17:31:57 2023

Set parameter Username
Set parameter LogFile to value "gurobi.log"
Academic license - for non-commercial use only - expires 2024-02-29
Using license file /home/agma/gurobi.lic

Gurobi 10.0.1 (linux64, gurobi_cl) logging started Wed Aug  9 14:23:37 2023

Set parameter Username
Set parameter LogFile to value "gurobi.log"
Academic license - for non-commercial use only - expires 2024-02-24
Using license file /home/agatha/gurobi.lic

Gurobi 10.0.1 (linux64, gurobi_cl) logging started Wed Aug  9 14:28:23 2023

Set parameter Username
Set parameter LogFile to value "gurobi.log"
Academic license - for non-commercial use only - expires 2024-02-24
Using license file /home/agatha/gurobi.lic

Gurobi 10.0.1 (linux64, gurobi_cl) logging started Wed Aug  9 16:57:28 2023

Set parameter Username
Set parameter LogFile to value "gurobi.log"
Academic license - for non-commercial use only - expires 2024-02-24
Using license file /home/agatha/gurobi.lic

Gurobi 10.0.1 (linux64, gurobi_cl) logging started Wed Aug  9 16:57:30 2023

Set parameter Username
Set parameter LogFile to value "gurobi.log"
Academic license - for non-commercial use only - expires 2024-02-24
Using license file /home/agatha/gurobi.lic

Gurobi 10.0.1 (linux64, gurobi_cl) logging started Wed Aug  9 16:58:50 2023

Set parameter Username
Set parameter LogFile to value "gurobi.log"
Academic license - for non-commercial use only - expires 2024-02-24
Using license file /home/agatha/gurobi.lic

Gurobi 10.0.1 (linux64, gurobi_cl) logging started Wed Aug  9 16:58:51 2023

Set parameter Username
Set parameter LogFile to value "gurobi.log"
Academic license - for non-commercial use only - expires 2024-02-24
Using license file /home/agatha/gurobi.lic

Gurobi 10.0.1 (linux64, gurobi_cl) logging started Wed Aug  9 17:06:31 2023

Set parameter Username
Set parameter LogFile to value "gurobi.log"
Academic license - for non-commercial use only - expires 2024-02-24
Using license file /home/agatha/gurobi.lic

Gurobi 10.0.1 (linux64, gurobi_cl) logging started Wed Aug  9 17:06:32 2023

Set parameter Username
Set parameter LogFile to value "gurobi.log"
Academic license - for non-commercial use only - expires 2024-02-24
Using license file /home/agatha/gurobi.lic

Gurobi 10.0.1 (linux64, gurobi_cl) logging started Wed Aug  9 17:09:18 2023

Set parameter Username
Set parameter LogFile to value "gurobi.log"
Academic license - for non-commercial use only - expires 2024-02-24
Using license file /home/agatha/gurobi.lic

Gurobi 10.0.1 (linux64, gurobi_cl) logging started Wed Aug  9 17:09:19 2023

Set parameter Username
Set parameter LogFile to value "gurobi.log"
Academic license - for non-commercial use only - expires 2024-02-24
Using license file /home/agatha/gurobi.lic

Gurobi 10.0.1 (linux64, gurobi_cl) logging started Wed Aug  9 17:10:03 2023

Set parameter Username
Set parameter LogFile to value "gurobi.log"
Academic license - for non-commercial use only - expires 2024-02-24
Using license file /home/agatha/gurobi.lic

Gurobi 10.0.1 (linux64, gurobi_cl) logging started Wed Aug  9 17:10:04 2023

Set parameter Username
Set parameter LogFile to value "gurobi.log"
Academic license - for non-commercial use only - expires 2024-02-24
Using license file /home/agatha/gurobi.lic

Gurobi 10.0.1 (linux64, gurobi_cl) logging started Wed Aug  9 17:19:22 2023

Set parameter Username
Set parameter LogFile to value "gurobi.log"
Academic license - for non-commercial use only - expires 2024-02-24
Using license file /home/agatha/gurobi.lic

Gurobi 10.0.1 (linux64, gurobi_cl) logging started Wed Aug  9 17:21:21 2023

Set parameter Username
Set parameter LogFile to value "gurobi.log"
Academic license - for non-commercial use only - expires 2024-02-24
Using license file /home/agatha/gurobi.lic

Gurobi 10.0.1 (linux64, gurobi_cl) logging started Thu Aug 10 10:40:13 2023

Set parameter Username
Set parameter LogFile to value "gurobi.log"
Academic license - for non-commercial use only - expires 2024-02-24
Using license file /home/agatha/gurobi.lic

Gurobi 10.0.1 (linux64, gurobi_cl) logging started Thu Aug 10 10:40:17 2023

Set parameter Username
Set parameter LogFile to value "gurobi.log"
Academic license - for non-commercial use only - expires 2024-02-24
Using license file /home/agatha/gurobi.lic
